p cnf 18 35
-3 1 0
3 0
-4 1 0
4 0
-5 -1 0
-5 2 0
-6 1 0
-6 -2 0
5 6 0
-7 -2 0
7 0
-8 -2 0
8 0
-9 1 0
9 0
-10 -1 0
-10 2 0
-11 1 0
-11 -2 0
10 11 0
-12 -2 0
12 0
-13 1 0
13 0
-14 1 0
14 0
-15 -1 0
-15 2 0
-16 1 0
-16 -2 0
15 16 0
-17 -2 0
17 0
-18 -2 0
18 0
